Minimize
  2.2262330362499999e+06 x0 + 5.0439946575000007e+06 x1
   + 4.742317114583334e+06 x2 + 4.6520470562499994e+06 x3
   + 4.6554567191666663e+06 x4 + 4.736129833333334e+06 x5
   + 4.8782262070833333e+06 x6 + 4.9121785287500015e+06 x7
   + 4.1174059533333331e+06 x8 + 4.2371452504166672e+06 x9
   + 2.81077852e+06 x10 + 2.5027344108333332e+06 x11
   + 4.0355516100000003e+06 x12 + 4.6088142787500005e+06 x13
   + 3.7411338104166673e+06 x14 + 4.6548445249999994e+06 x15
   + 4.629042425416667e+06 x16 + 4.6366708300000001e+06 x17
   + 4.7100656670833332e+06 x18 + 5.0698567600000016e+06 x19
   + 4.8744342220833339e+06 x20 + 4.77166234375e+06 x21
   + 4.7113024108333346e+06 x22 + 4.573340654583334e+06 x23
   + 1.3927829070833335e+06 x24 + 4.508199788333334e+06 x25
   + 4.4948597233333346e+06 x26 + 5.1194271137500005e+06 x27
   + 4.9653219733333336e+06 x28 + 1.8916996487499999e+06 x29
   + 5.0088745870833332e+06 x30 + 4.8234727454166654e+06 x31
   + 4.7546724308333341e+06 x32 + 3.8517662358333343e+06 x33
   + 4.9597690504166679e+06 x34 + 5.083392536249999e+06 x35
   + 823799.9366666668 x36 + 4.8860679574999996e+06 x37
   + 4.4678142408333337e+06 x38 + 4.7674358525e+06 x39
   + 1.9049381570833335e+06 x40 + 5.1025873762499997e+06 x41
   + 3.2554342037499999e+06 x42 + 4.6369010845833346e+06 x43
   + 4.7415671479166672e+06 x44 + 4.5040470020833341e+06 x45
   + 4.7555259833333325e+06 x46 + 3.6976067345833327e+06 x47
   + 4.742317114583334e+06 x48 + 4.6520470562499994e+06 x49
   + 4.6554567191666663e+06 x50 + 4.613715854166667e+06 x51
   + 3.5339229208333339e+06 x52 + 4.9382798191666678e+06 x53
   + 4.9479583262499999e+06 x54 + 4.9198511400000006e+06 x55
   + 5.1215980820833342e+06 x56 + 4.9016461845833333e+06 x57
   + 5.1073907625000002e+06 x58 + 4.6255535762499999e+06 x59
   + 5.0535723554166676e+06 x60 + 4.865555717083334e+06 x61
   + 4.7715980350000001e+06 x62 + 4.7202426262500007e+06 x63
   + 4.561770276250001e+06 x64 + 2.8848043241666667e+06 x65
   + 4.1867448095833338e+06 x66 + 4.6256898041666672e+06 x67
   + 4.5635935958333341e+06 x68 + 4.7261314466666663e+06 x69
   + 4.5347797866666671e+06 x70 + 4.304448927083333e+06 x71
   + 5.5582667562500006e+06 x72 + 4.2064869483333332e+06 x73
   + 3.007326197083333e+06 x74 + 5.0698567600000016e+06 x75
   + 5.1197714537499994e+06 x76 + 4.9873958120833337e+06 x77
   + 4.688137967083334e+06 x78 + 4.6474927666666675e+06 x79
   + 4.7149306812500004e+06 x80 + 3.6600772008333332e+06 x81
   + 5.1194271137500005e+06 x82 + 5.0639176804166669e+06 x83
   + 3.3582138770833327e+06 x84 + 4.5164430008333325e+06 x85
   + 3.9175950716666663e+06 x86 + 3.0451199070833335e+06 x87
   + 3.673745020833334e+06 x88 + 2.4522169645833336e+06 x89
   + 3.8463947704166677e+06 x90 + 4.9875286291666664e+06 x91
   + 4.8817121537500005e+06 x92 + 4.3148909966666671e+06 x93
   + 5.1488545987500008e+06 x94 + 4.9169425099999998e+06 x95
   + 4.7546724308333341e+06 x96 + 4.5092527020833334e+06 x97
   + 4.1211531325000012e+06 x98 + 4.8622811674999995e+06 x99
   + 4.5642913091666671e+06 x100 + 4.0100047966666669e+06 x101
   + 4.8213184424999999e+06 x102 + 5.4943639958333336e+06 x103
   + 4.688137967083334e+06 x104 + 4.6474927666666675e+06 x105
   + 4.7149306812500004e+06 x106 + 2.1870210187500003e+06 x107
   + 4.4678142408333337e+06 x108 + 4.7674358525e+06 x109
   + 4.5682320291666668e+06 x110 + 2.3844309950000001e+06 x111
   + 4.5164430008333325e+06 x112 + 3.9175950716666663e+06 x113
   + 3.0451199070833335e+06 x114 + 3.9544615241666669e+06 x115
   + 4.9016461845833333e+06 x116 + 5.1073907625000002e+06 x117
   + 4.6255535762499999e+06 x118 + 5.0535723554166676e+06 x119
   + 4.865555717083334e+06 x120 + 4.7715980350000001e+06 x121
   + 4.7202426262500007e+06 x122 + 4.561770276250001e+06 x123
   + 623978.6441666667 x124 + 4.7126022270833338e+06 x125
   + 4.9573398325000014e+06 x126 + 4.8801674445833331e+06 x127
   + 3.4073922475000001e+06 x128 + 4.9620116966666663e+06 x129
   + 4.8234727454166654e+06 x130 + 4.7546724308333341e+06 x131
   + 3.7584509916666672e+06 x132 + 3.7483740662499997e+06 x133
   + 4.4948597233333346e+06 x134 + 5.1393369037500005e+06 x135
   + 2.7527908654166665e+06 x136 + 5.0930784733333336e+06 x137
   + 4.152054728333333e+06 x138 + 3.3130896191666671e+06 x139
   + 4.742317114583334e+06 x140 + 4.6520470562499994e+06 x141
   + 4.6554567191666663e+06 x142 + 4.7474312841666676e+06 x143
   + 939312.7424999999 x144 + 4.7790484537499994e+06 x145
   + 1.889284497916667e+06 x146 + 3.6467042287499998e+06 x147
   + 4.8836544079166669e+06 x148 + 5.0120536479166681e+06 x149
   + 5.1084342758333338e+06 x150 + 4.7406061120833335e+06 x151
   + 5.5582667562500006e+06 x152 + 4.2064869483333332e+06 x153
   + 4.5653862045833338e+06 x154 + 5.0586072758333338e+06 x155
   + 4.8976626725000003e+06 x156 + 4.7425558137500007e+06 x157
   + 4.6255749495833339e+06 x158 + 4.538388524166666e+06 x159
   + 4.1376008670833334e+06 x160 + 4.6093956558333337e+06 x161
   + 4.9875286291666664e+06 x162 + 4.0989100195833333e+06 x163
   + 4.1871205533333328e+06 x164 + 5.1784619575000014e+06 x165
   + 3.6976073841666672e+06 x166 + 4.7546724308333341e+06 x167
   + 3.7584509916666672e+06 x168 + 1.5125956700000002e+06 x169
   + 4.5695990545833325e+06 x170 + 4.5681972537500001e+06 x171
   + 4.7197249083333341e+06 x172
Subject To
 c_0: x18 + x59 + x74 + x118 + x154 >= 1
 c_1: x31 + x47 + x95 + x130 + x166 >= 1
 c_2: x3 + x49 + x78 + x104 + x141 >= 1
 c_3: x5 + x51 + x80 + x106 + x143 >= 1
 c_4: x16 + x43 + x87 + x114 + x158 >= 1
 c_5: x32 + x46 + x96 + x131 + x167 >= 1
 c_6: x31 + x47 + x95 + x130 + x166 >= 1
 c_7: x13 + x67 + x89 + x125 + x148 >= 1
 c_8: x28 + x56 + x83 + x136 + x150 >= 1
 c_9: x34 + x54 + x93 + x129 + x164 >= 1
 c_10: x26 + x41 + x83 + x134 + x149 >= 1
 c_11: x27 + x56 + x82 + x135 + x151 >= 1
 c_12: x4 + x50 + x79 + x105 + x142 >= 1
 c_13: x7 + x57 + x71 + x116 + x151 >= 1
 c_14: x29 + x55 + x92 + x127 + x163 >= 1
 c_15: x7 + x57 + x72 + x116 + x152 >= 1
 c_16: x5 + x51 + x80 + x106 + x143 >= 1
 c_17: x22 + x63 + x100 + x122 + x172 >= 1
 c_18: x28 + x55 + x92 + x127 + x163 >= 1
 c_19: x17 + x40 + x99 + x110 + x156 >= 1
 c_20: x20 + x61 + x76 + x120 + x172 >= 1
 c_21: x25 + x65 + x97 + x132 + x168 >= 1
 c_22: x19 + x60 + x75 + x119 + x155 >= 1
 c_23: x27 + x41 + x82 + x135 + x150 >= 1
 c_24: x33 + x53 + x92 + x128 + x163 >= 1
 c_25: x20 + x61 + x76 + x120 + x172 >= 1
 c_26: x26 + x41 + x83 + x134 + x149 >= 1
 c_27: x19 + x60 + x75 + x119 + x155 >= 1
 c_28: x4 + x50 + x80 + x106 + x142 >= 1
 c_29: x24 + x65 + x88 + x124 + x160 >= 1
 c_30: x23 + x64 + x100 + x123 + x171 >= 1
 c_31: x14 + x45 + x85 + x112 + x159 >= 1
 c_32: x16 + x45 + x87 + x114 + x171 >= 1
 c_33: x34 + x53 + x92 + x128 + x164 >= 1
 c_34: x33 + x68 + x97 + x132 + x168 >= 1
 c_35: x33 + x68 + x97 + x132 + x168 >= 1
 c_36: x2 + x48 + x77 + x103 + x140 >= 1
 c_37: x26 + x41 + x83 + x134 + x149 >= 1
 c_38: x2 + x48 + x77 + x103 + x140 >= 1
 c_39: x4 + x50 + x79 + x105 + x142 >= 1
 c_40: x4 + x50 + x79 + x105 + x142 >= 1
 c_41: x3 + x49 + x79 + x105 + x141 >= 1
 c_42: x21 + x62 + x101 + x121 + x157 >= 1
 c_43: x16 + x44 + x88 + x115 + x170 >= 1
 c_44: x7 + x58 + x72 + x117 + x152 >= 1
 c_45: x21 + x62 + x101 + x121 + x156 >= 1
 c_46: x2 + x48 + x77 + x103 + x140 >= 1
 c_47: x22 + x63 + x102 + x122 + x157 >= 1
 c_48: x27 + x56 + x82 + x135 + x151 >= 1
 c_49: x30 + x52 + x93 + x129 + x165 >= 1
 c_50: x23 + x64 + x100 + x123 + x172 >= 1
 c_51: x19 + x59 + x75 + x118 + x154 >= 1
 c_52: x9 + x53 + x91 + x126 + x162 >= 1
 c_53: x30 + x54 + x91 + x127 + x162 >= 1
 c_54: x21 + x61 + x101 + x120 + x157 >= 1
 c_55: x32 + x46 + x96 + x131 + x167 >= 1
 c_56: x10 + x38 + x70 + x108 + x147 >= 1
 c_57: x5 + x51 + x80 + x106 + x143 >= 1
 c_58: x4 + x50 + x80 + x106 + x142 >= 1
 c_59: x20 + x60 + x76 + x119 + x155 >= 1
 c_60: x33 + x68 + x97 + x132 + x168 >= 1
 c_61: x23 + x63 + x100 + x122 + x171 >= 1
 c_62: x30 + x52 + x94 + x129 + x165 >= 1
 c_63: x14 + x45 + x85 + x112 + x159 >= 1
 c_64: x15 + x43 + x86 + x113 + x159 >= 1
 c_65: x18 + x59 + x73 + x118 + x153 >= 1
 c_66: x34 + x54 + x93 + x128 + x164 >= 1
 c_67: x27 + x56 + x82 + x135 + x151 >= 1
 c_68: x33 + x68 + x97 + x132 + x168 >= 1
 c_69: x26 + x41 + x83 + x134 + x149 >= 1
 c_70: x2 + x48 + x78 + x104 + x140 >= 1
 c_71: x21 + x62 + x102 + x121 + x157 >= 1
 c_72: x28 + x55 + x92 + x127 + x163 >= 1
 c_73: x10 + x38 + x70 + x108 + x147 >= 1
 c_74: x14 + x42 + x85 + x112 + x148 >= 1
 c_75: x18 + x39 + x69 + x109 + x145 >= 1
 c_76: x6 + x58 + x72 + x117 + x152 >= 1
 c_77: x20 + x61 + x99 + x120 + x156 >= 1
 c_78: x13 + x67 + x90 + x126 + x161 >= 1
 c_79: x13 + x67 + x90 + x126 + x161 >= 1
 c_80: x13 + x67 + x90 + x125 + x161 >= 1
 c_81: x32 + x46 + x96 + x131 + x167 >= 1
 c_82: x3 + x49 + x78 + x104 + x141 >= 1
 c_83: x3 + x49 + x79 + x105 + x141 >= 1
 c_84: x3 + x49 + x78 + x104 + x141 >= 1
 c_85: x15 + x43 + x86 + x113 + x159 >= 1
 c_86: x15 + x44 + x87 + x114 + x158 >= 1
 c_87: x30 + x52 + x94 + x129 + x165 >= 1
 c_88: x19 + x60 + x75 + x119 + x155 >= 1
 c_89: x19 + x60 + x75 + x119 + x155 >= 1
 c_90: x25 + x66 + x98 + x133 + x170 >= 1
 c_91: x18 + x59 + x74 + x118 + x154 >= 1
 c_92: x31 + x51 + x94 + x130 + x165 >= 1
 c_93: x34 + x54 + x93 + x128 + x164 >= 1
 c_94: x30 + x54 + x91 + x127 + x162 >= 1
 c_95: x20 + x61 + x76 + x120 + x172 >= 1
 c_96: x25 + x65 + x98 + x133 + x169 >= 1
 c_97: x12 + x42 + x84 + x111 + x160 >= 1
 c_98: x29 + x55 + x92 + x127 + x163 >= 1
 c_99: x11 + x44 + x84 + x115 + x149 >= 1
 c_100: x7 + x57 + x72 + x116 + x152 >= 1
 c_101: x16 + x43 + x87 + x114 + x158 >= 1
 c_102: x8 + x35 + x71 + x137 + x138 >= 1
 c_103: x7 + x57 + x72 + x116 + x152 >= 1
 c_104: x16 + x44 + x88 + x115 + x170 >= 1
 c_105: x30 + x52 + x94 + x129 + x165 >= 1
 c_106: x20 + x61 + x99 + x120 + x156 >= 1
 c_107: x28 + x55 + x81 + x136 + x150 >= 1
 c_108: x9 + x53 + x91 + x126 + x162 >= 1
 c_109: x23 + x64 + x101 + x123 + x171 >= 1
 c_110: x12 + x67 + x90 + x125 + x161 >= 1
 c_111: x25 + x66 + x98 + x133 + x170 >= 1
 c_112: x9 + x53 + x91 + x126 + x162 >= 1
 c_113: x22 + x63 + x99 + x122 + x155 >= 1
 c_114: x31 + x47 + x95 + x130 + x166 >= 1
 c_115: x2 + x48 + x78 + x104 + x140 >= 1
 c_116: x1 + x37 + x77 + x103 + x139 >= 1
 c_117: x15 + x43 + x86 + x113 + x158 >= 1
 c_118: x31 + x47 + x95 + x130 + x166 >= 1
 c_119: x21 + x62 + x102 + x121 + x157 >= 1
 c_120: x12 + x66 + x89 + x125 + x161 >= 1
 c_121: x22 + x62 + x102 + x121 + x157 >= 1
 c_122: x10 + x38 + x70 + x108 + x147 >= 1
 c_123: x25 + x66 + x98 + x133 + x170 >= 1
 c_124: x8 + x57 + x72 + x116 + x152 >= 1
 c_125: x5 + x46 + x76 + x110 + x148 >= 1
 c_126: x9 + x37 + x81 + x110 + x143 >= 1
 c_127: x17 + x39 + x69 + x109 + x145 >= 1
 c_128: x26 + x66 + x98 + x134 + x160 >= 1
 c_129: x13 + x68 + x89 + x125 + x148 >= 1
 c_130: x1 + x37 + x94 + x107 + x139 >= 1
 c_131: x14 + x45 + x85 + x112 + x159 >= 1
 c_132: x18 + x59 + x74 + x118 + x154 >= 1
 c_133: x15 + x43 + x86 + x113 + x158 >= 1
 c_134: x8 + x35 + x95 + x137 + x138 >= 1
 c_135: x11 + x44 + x84 + x115 + x149 >= 1
 c_136: x0 + x47 + x95 + x103 + x166 >= 1
 c_137: x8 + x35 + x71 + x137 + x138 >= 1
 c_138: x25 + x65 + x97 + x133 + x169 >= 1
 c_139: x27 + x56 + x82 + x135 + x151 >= 1
 c_140: x27 + x41 + x82 + x135 + x150 >= 1
 c_141: x22 + x63 + x99 + x122 + x146 >= 1
 c_142: x1 + x37 + x77 + x103 + x139 >= 1
 c_143: x6 + x35 + x99 + x137 + x145 >= 1
 c_144: x6 + x58 + x73 + x117 + x153 >= 1
 c_145: x6 + x58 + x73 + x117 + x153 >= 1
 c_146: x22 + x63 + x100 + x122 + x172 >= 1
 c_147: x19 + x60 + x75 + x119 + x154 >= 1
 c_148: x34 + x54 + x93 + x129 + x164 >= 1
 c_149: x13 + x42 + x85 + x112 + x148 >= 1
 c_150: x0 + x39 + x70 + x109 + x146 >= 1
 c_151: x23 + x64 + x101 + x123 + x171 >= 1
 c_152: x23 + x64 + x100 + x123 + x171 >= 1
 c_153: x16 + x45 + x88 + x115 + x170 >= 1
 c_154: x6 + x58 + x73 + x117 + x153 >= 1
 c_155: x24 + x64 + x88 + x123 + x160 >= 1
 c_156: x32 + x46 + x96 + x131 + x167 >= 1
 c_157: x32 + x46 + x96 + x131 + x167 >= 1
 c_158: x31 + x51 + x94 + x130 + x165 >= 1
 c_159: x1 + x38 + x71 + x108 + x144 >= 1
 c_160: x14 + x45 + x85 + x112 + x159 >= 1
 c_161: x12 + x42 + x84 + x111 + x160 >= 1
 c_162: x21 + x62 + x102 + x121 + x156 >= 1
 c_163: x28 + x55 + x81 + x110 + x150 >= 1
 c_164: x28 + x56 + x83 + x136 + x150 >= 1
 c_165: x5 + x36 + x76 + x111 + x148 >= 1
 c_166: x9 + x53 + x91 + x126 + x162 >= 1
 c_167: x17 + x39 + x69 + x109 + x145 >= 1
 c_168: x26 + x66 + x98 + x134 + x160 >= 1
 c_169: x17 + x39 + x69 + x109 + x145 >= 1
 c_170: x12 + x67 + x90 + x125 + x161 >= 1
 c_171: x32 + x68 + x96 + x131 + x167 >= 1
 c_172: x15 + x44 + x86 + x113 + x158 >= 1
 c_173: x11 + x38 + x70 + x108 + x147 >= 1
 c_174: x1 + x35 + x69 + x137 + x138 >= 1
 c_175: x34 + x37 + x81 + x107 + x143 >= 1
 c_176: x17 + x40 + x102 + x110 + x156 >= 1
Bounds
 x0 <= 1
 x1 <= 1
 x2 <= 1
 x3 <= 1
 x4 <= 1
 x5 <= 1
 x6 <= 1
 x7 <= 1
 x8 <= 1
 x9 <= 1
 x10 <= 1
 x11 <= 1
 x12 <= 1
 x13 <= 1
 x14 <= 1
 x15 <= 1
 x16 <= 1
 x17 <= 1
 x18 <= 1
 x19 <= 1
 x20 <= 1
 x21 <= 1
 x22 <= 1
 x23 <= 1
 x24 <= 1
 x25 <= 1
 x26 <= 1
 x27 <= 1
 x28 <= 1
 x29 <= 1
 x30 <= 1
 x31 <= 1
 x32 <= 1
 x33 <= 1
 x34 <= 1
 x35 <= 1
 x36 <= 1
 x37 <= 1
 x38 <= 1
 x39 <= 1
 x40 <= 1
 x41 <= 1
 x42 <= 1
 x43 <= 1
 x44 <= 1
 x45 <= 1
 x46 <= 1
 x47 <= 1
 x48 <= 1
 x49 <= 1
 x50 <= 1
 x51 <= 1
 x52 <= 1
 x53 <= 1
 x54 <= 1
 x55 <= 1
 x56 <= 1
 x57 <= 1
 x58 <= 1
 x59 <= 1
 x60 <= 1
 x61 <= 1
 x62 <= 1
 x63 <= 1
 x64 <= 1
 x65 <= 1
 x66 <= 1
 x67 <= 1
 x68 <= 1
 x69 <= 1
 x70 <= 1
 x71 <= 1
 x72 <= 1
 x73 <= 1
 x74 <= 1
 x75 <= 1
 x76 <= 1
 x77 <= 1
 x78 <= 1
 x79 <= 1
 x80 <= 1
 x81 <= 1
 x82 <= 1
 x83 <= 1
 x84 <= 1
 x85 <= 1
 x86 <= 1
 x87 <= 1
 x88 <= 1
 x89 <= 1
 x90 <= 1
 x91 <= 1
 x92 <= 1
 x93 <= 1
 x94 <= 1
 x95 <= 1
 x96 <= 1
 x97 <= 1
 x98 <= 1
 x99 <= 1
 x100 <= 1
 x101 <= 1
 x102 <= 1
 x103 <= 1
 x104 <= 1
 x105 <= 1
 x106 <= 1
 x107 <= 1
 x108 <= 1
 x109 <= 1
 x110 <= 1
 x111 <= 1
 x112 <= 1
 x113 <= 1
 x114 <= 1
 x115 <= 1
 x116 <= 1
 x117 <= 1
 x118 <= 1
 x119 <= 1
 x120 <= 1
 x121 <= 1
 x122 <= 1
 x123 <= 1
 x124 <= 1
 x125 <= 1
 x126 <= 1
 x127 <= 1
 x128 <= 1
 x129 <= 1
 x130 <= 1
 x131 <= 1
 x132 <= 1
 x133 <= 1
 x134 <= 1
 x135 <= 1
 x136 <= 1
 x137 <= 1
 x138 <= 1
 x139 <= 1
 x140 <= 1
 x141 <= 1
 x142 <= 1
 x143 <= 1
 x144 <= 1
 x145 <= 1
 x146 <= 1
 x147 <= 1
 x148 <= 1
 x149 <= 1
 x150 <= 1
 x151 <= 1
 x152 <= 1
 x153 <= 1
 x154 <= 1
 x155 <= 1
 x156 <= 1
 x157 <= 1
 x158 <= 1
 x159 <= 1
 x160 <= 1
 x161 <= 1
 x162 <= 1
 x163 <= 1
 x164 <= 1
 x165 <= 1
 x166 <= 1
 x167 <= 1
 x168 <= 1
 x169 <= 1
 x170 <= 1
 x171 <= 1
 x172 <= 1
Generals
 x0 x1 x2 x3 x4 x5 x6 x7 x8 x9 x10 x11 x12 x13 x14 x15 x16 x17 x18 x19 x20
 x21 x22 x23 x24 x25 x26 x27 x28 x29 x30 x31 x32 x33 x34 x35 x36 x37 x38
 x39 x40 x41 x42 x43 x44 x45 x46 x47 x48 x49 x50 x51 x52 x53 x54 x55 x56
 x57 x58 x59 x60 x61 x62 x63 x64 x65 x66 x67 x68 x69 x70 x71 x72 x73 x74
 x75 x76 x77 x78 x79 x80 x81 x82 x83 x84 x85 x86 x87 x88 x89 x90 x91 x92
 x93 x94 x95 x96 x97 x98 x99 x100 x101 x102 x103 x104 x105 x106 x107 x108
 x109 x110 x111 x112 x113 x114 x115 x116 x117 x118 x119 x120 x121 x122 x123
 x124 x125 x126 x127 x128 x129 x130 x131 x132 x133 x134 x135 x136 x137 x138
 x139 x140 x141 x142 x143 x144 x145 x146 x147 x148 x149 x150 x151 x152 x153
 x154 x155 x156 x157 x158 x159 x160 x161 x162 x163 x164 x165 x166 x167 x168
 x169 x170 x171 x172
End
